width = 37;
n = 27;
DX = [3, 3, 3, 3, 3, 3, 3, 3, 3, 3, 3, 3, 3, 3, 4, 4, 4, 4, 4, 4, 4, 5, 5, 5, 5, 5, 12];
DY = [3, 4, 5, 6, 7, 8, 9, 11, 12, 13, 14, 17, 18, 21, 3, 4, 5, 6, 10, 22, 24, 3, 4, 6, 10, 14, 37];